85 99 
48 93 
88 66 
22 88 
72 19 
8 2 
42 62 
32 5 
12 58 
12 23 
56 94 
55 13 
86 64 
98 2 
7 40 
37 92 
39 85 
38 80 
3 12 
68 75 
84 28 
77 26 
91 62 
83 3 
20 95 
78 29 
41 85 
42 28 
49 40 
82 9 
